solution status: optimal solution found
objective value:                              3128900
v#1$Producto D                                      1 	(obj:0)
v#1$Producto E                                      1 	(obj:0)
v#6$Producto A                                      1 	(obj:0)
v#7$Producto C                                      1 	(obj:0)
v#8$Producto B                                      1 	(obj:0)
v#9$Producto A                                      1 	(obj:0)
v#9$Producto E                                      1 	(obj:0)
v#18$Producto A                                     1 	(obj:0)
v#18$Producto B                                     1 	(obj:0)
v#18$Producto C                                     1 	(obj:0)
v#18$Producto D                                     1 	(obj:0)
v#18$Producto E                                     1 	(obj:0)
v#19$Producto A                                     1 	(obj:0)
v#19$Producto B                                     1 	(obj:0)
v#19$Producto C                                     1 	(obj:0)
v#19$Producto D                                     1 	(obj:0)
v#19$Producto E                                     1 	(obj:0)
v#20$Producto B                                     1 	(obj:0)
v#20$Producto D                                     1 	(obj:0)
v#20$Producto E                                     1 	(obj:0)
v#21$Producto E                                     1 	(obj:0)
z#1$Producto D                                     25 	(obj:540)
z#1$Producto E                                    135 	(obj:540)
z#6$Producto A                                    165 	(obj:540)
z#7$Producto C                                    150 	(obj:540)
z#8$Producto B                                     95 	(obj:540)
z#9$Producto A                                    150 	(obj:540)
z#9$Producto E                                     20 	(obj:540)
z#18$Producto A                                    75 	(obj:540)
z#18$Producto B                                    20 	(obj:540)
z#18$Producto C                                    20 	(obj:540)
z#18$Producto D                                    20 	(obj:540)
z#18$Producto E                                    20 	(obj:540)
z#19$Producto A                                    20 	(obj:540)
z#19$Producto B                                   120 	(obj:540)
z#19$Producto C                                    20 	(obj:540)
z#19$Producto D                                    20 	(obj:540)
z#19$Producto E                                    20 	(obj:540)
z#20$Producto B                                   155 	(obj:540)
z#20$Producto D                                    25 	(obj:540)
z#20$Producto E                                    20 	(obj:540)
z#21$Producto E                                    25 	(obj:540)
w#1$Producto A                                      2 	(obj:0)
w#1$Producto B                                      8 	(obj:0)
w#1$Producto C                                      8 	(obj:0)
w#1$Producto D                                     12 	(obj:0)
w#2$Producto A                                      6 	(obj:0)
w#2$Producto B                                     12 	(obj:0)
w#2$Producto E                                     12 	(obj:0)
w#3$Producto A                                     12 	(obj:0)
w#3$Producto B                                     12 	(obj:0)
w#3$Producto E                                      6 	(obj:0)
w#4$Producto A                                     12 	(obj:0)
w#4$Producto D                                      6 	(obj:0)
w#4$Producto E                                     12 	(obj:0)
w#5$Producto A                                     12 	(obj:0)
w#5$Producto B                                     12 	(obj:0)
w#5$Producto C                                      6 	(obj:0)
w#6$Producto A                                      6 	(obj:0)
w#6$Producto B                                     12 	(obj:0)
w#6$Producto D                                     12 	(obj:0)
w#7$Producto B                                     12 	(obj:0)
w#7$Producto D                                      6 	(obj:0)
w#7$Producto E                                     12 	(obj:0)
w#8$Producto B                                     12 	(obj:0)
w#8$Producto C                                     12 	(obj:0)
w#8$Producto D                                      6 	(obj:0)
w#9$Producto B                                     12 	(obj:0)
w#9$Producto D                                      6 	(obj:0)
w#9$Producto E                                     12 	(obj:0)
w#10$Producto A                                     6 	(obj:0)
w#10$Producto B                                     6 	(obj:0)
w#10$Producto C                                     3 	(obj:0)
w#10$Producto D                                     4 	(obj:0)
w#10$Producto E                                    11 	(obj:0)
w#11$Producto A                                    12 	(obj:0)
w#11$Producto B                                    12 	(obj:0)
w#11$Producto C                                     4 	(obj:0)
w#11$Producto D                                     1 	(obj:0)
w#12$Producto B                                    12 	(obj:0)
w#12$Producto D                                     2 	(obj:0)
w#12$Producto E                                    12 	(obj:0)
w#13$Producto A                                     1 	(obj:0)
w#13$Producto D                                    12 	(obj:0)
w#13$Producto E                                    12 	(obj:0)
w#14$Producto C                                    12 	(obj:0)
w#14$Producto E                                    12 	(obj:0)
w#15$Producto B                                     1 	(obj:0)
w#15$Producto C                                    12 	(obj:0)
w#15$Producto D                                    12 	(obj:0)
w#16$Producto A                                     4 	(obj:0)
w#16$Producto C                                    12 	(obj:0)
w#16$Producto D                                    11 	(obj:0)
w#17$Producto A                                    12 	(obj:0)
w#17$Producto B                                     6 	(obj:0)
w#17$Producto E                                    12 	(obj:0)
w#18$Producto A                                    12 	(obj:0)
w#18$Producto B                                    12 	(obj:0)
w#18$Producto D                                     3 	(obj:0)
w#18$Producto E                                     3 	(obj:0)
w#19$Producto A                                    12 	(obj:0)
w#19$Producto B                                    12 	(obj:0)
w#19$Producto E                                     6 	(obj:0)
w#20$Producto A                                    12 	(obj:0)
w#20$Producto B                                    12 	(obj:0)
w#20$Producto D                                     6 	(obj:0)
w#21$Producto A                                    12 	(obj:0)
w#21$Producto B                                    12 	(obj:0)
w#21$Producto E                                     6 	(obj:0)
w#22$Producto A                                     6 	(obj:0)
w#22$Producto B                                     6 	(obj:0)
w#22$Producto C                                     5 	(obj:0)
w#22$Producto D                                     6 	(obj:0)
w#22$Producto E                                     7 	(obj:0)
w#23$Producto A                                     5 	(obj:0)
w#23$Producto B                                     6 	(obj:0)
w#23$Producto E                                     6 	(obj:0)
s#1$Producto B                                     50 	(obj:0)
s#1$Producto C                                     70 	(obj:0)
s#1$Producto D                                    130 	(obj:0)
s#1$Producto E                                    120 	(obj:0)
s#2$Producto A                                     35 	(obj:0)
s#2$Producto B                                    130 	(obj:0)
s#2$Producto C                                     55 	(obj:0)
s#2$Producto D                                    110 	(obj:0)
s#2$Producto E                                    225 	(obj:0)
s#3$Producto A                                    125 	(obj:0)
s#3$Producto B                                    210 	(obj:0)
s#3$Producto C                                     40 	(obj:0)
s#3$Producto D                                     90 	(obj:0)
s#3$Producto E                                    265 	(obj:0)
s#4$Producto A                                    205 	(obj:0)
s#4$Producto B                                    165 	(obj:0)
s#4$Producto C                                     20 	(obj:0)
s#4$Producto D                                    130 	(obj:0)
s#4$Producto E                                    360 	(obj:0)
s#5$Producto A                                    265 	(obj:0)
s#5$Producto B                                    195 	(obj:0)
s#5$Producto C                                     50 	(obj:0)
s#5$Producto D                                     85 	(obj:0)
s#5$Producto E                                    290 	(obj:0)
s#6$Producto A                                    390 	(obj:0)
s#6$Producto B                                    175 	(obj:0)
s#6$Producto D                                    135 	(obj:0)
s#6$Producto E                                    190 	(obj:0)
s#7$Producto A                                    210 	(obj:0)
s#7$Producto B                                     85 	(obj:0)
s#7$Producto C                                     60 	(obj:0)
s#7$Producto D                                     90 	(obj:0)
s#7$Producto E                                    160 	(obj:0)
s#8$Producto B                                     50 	(obj:0)
s#8$Producto C                                     75 	(obj:0)
s#8$Producto D                                     25 	(obj:0)
s#10$Producto D                                    10 	(obj:0)
s#10$Producto E                                    40 	(obj:0)
s#11$Producto A                                    90 	(obj:0)
s#11$Producto B                                    80 	(obj:0)
s#11$Producto C                                    25 	(obj:0)
s#12$Producto A                                    70 	(obj:0)
s#12$Producto B                                   175 	(obj:0)
s#12$Producto C                                    15 	(obj:0)
s#12$Producto D                                     5 	(obj:0)
s#12$Producto E                                   100 	(obj:0)
s#13$Producto A                                    60 	(obj:0)
s#13$Producto B                                   145 	(obj:0)
s#13$Producto C                                     5 	(obj:0)
s#13$Producto D                                   110 	(obj:0)
s#13$Producto E                                   205 	(obj:0)
s#14$Producto A                                    35 	(obj:0)
s#14$Producto B                                   105 	(obj:0)
s#14$Producto C                                   110 	(obj:0)
s#14$Producto D                                    90 	(obj:0)
s#14$Producto E                                   310 	(obj:0)
s#15$Producto A                                     5 	(obj:0)
s#15$Producto B                                    75 	(obj:0)
s#15$Producto C                                   215 	(obj:0)
s#15$Producto D                                   190 	(obj:0)
s#15$Producto E                                   290 	(obj:0)
s#16$Producto A                                     5 	(obj:0)
s#16$Producto B                                    30 	(obj:0)
s#16$Producto C                                   315 	(obj:0)
s#16$Producto D                                   280 	(obj:0)
s#16$Producto E                                   265 	(obj:0)
s#17$Producto A                                    65 	(obj:0)
s#17$Producto C                                   285 	(obj:0)
s#17$Producto D                                   235 	(obj:0)
s#17$Producto E                                   315 	(obj:0)
s#18$Producto A                                   160 	(obj:0)
s#18$Producto C                                   255 	(obj:0)
s#18$Producto D                                   215 	(obj:0)
s#18$Producto E                                   265 	(obj:0)
s#19$Producto A                                   120 	(obj:0)
s#19$Producto B                                    30 	(obj:0)
s#19$Producto C                                   185 	(obj:0)
s#19$Producto D                                   130 	(obj:0)
s#19$Producto E                                   195 	(obj:0)
s#20$Producto A                                    30 	(obj:0)
s#20$Producto B                                    55 	(obj:0)
s#20$Producto C                                    80 	(obj:0)
s#20$Producto D                                    90 	(obj:0)
s#20$Producto E                                    55 	(obj:0)
s#21$Producto B                                     5 	(obj:0)
s#21$Producto C                                     5 	(obj:0)
s#21$Producto D                                     5 	(obj:0)
s#22$Producto B                                     5 	(obj:0)
s#22$Producto C                                    25 	(obj:0)
s#22$Producto D                                    35 	(obj:0)
s#23$Producto A                                    20 	(obj:0)
s#23$Producto B                                    25 	(obj:0)
s#23$Producto C                                    10 	(obj:0)
s#23$Producto D                                    15 	(obj:0)
s#23$Producto E                                    20 	(obj:0)
x#1$Producto A                                     20 	(obj:370)
x#1$Producto B                                     80 	(obj:370)
x#1$Producto C                                     80 	(obj:370)
x#1$Producto D                                    120 	(obj:370)
x#2$Producto A                                     60 	(obj:370)
x#2$Producto B                                    120 	(obj:370)
x#2$Producto E                                    120 	(obj:370)
x#3$Producto A                                    120 	(obj:370)
x#3$Producto B                                    120 	(obj:370)
x#3$Producto E                                     60 	(obj:370)
x#4$Producto A                                    120 	(obj:370)
x#4$Producto D                                     60 	(obj:370)
x#4$Producto E                                    120 	(obj:370)
x#5$Producto A                                    120 	(obj:370)
x#5$Producto B                                    120 	(obj:370)
x#5$Producto C                                     60 	(obj:370)
x#6$Producto A                                     60 	(obj:370)
x#6$Producto B                                    120 	(obj:370)
x#6$Producto D                                    120 	(obj:370)
x#7$Producto B                                    120 	(obj:370)
x#7$Producto D                                     60 	(obj:370)
x#7$Producto E                                    120 	(obj:370)
x#8$Producto B                                    120 	(obj:370)
x#8$Producto C                                    120 	(obj:370)
x#8$Producto D                                     60 	(obj:370)
x#9$Producto B                                    120 	(obj:370)
x#9$Producto D                                     60 	(obj:370)
x#9$Producto E                                    120 	(obj:370)
x#10$Producto A                                    60 	(obj:370)
x#10$Producto B                                    60 	(obj:370)
x#10$Producto C                                    30 	(obj:370)
x#10$Producto D                                    40 	(obj:370)
x#10$Producto E                                   110 	(obj:370)
x#11$Producto A                                   120 	(obj:370)
x#11$Producto B                                   120 	(obj:370)
x#11$Producto C                                    40 	(obj:370)
x#11$Producto D                                    10 	(obj:370)
x#12$Producto B                                   120 	(obj:370)
x#12$Producto D                                    20 	(obj:370)
x#12$Producto E                                   120 	(obj:370)
x#13$Producto A                                    10 	(obj:370)
x#13$Producto D                                   120 	(obj:370)
x#13$Producto E                                   120 	(obj:370)
x#14$Producto C                                   120 	(obj:370)
x#14$Producto E                                   120 	(obj:370)
x#15$Producto B                                    10 	(obj:370)
x#15$Producto C                                   120 	(obj:370)
x#15$Producto D                                   120 	(obj:370)
x#16$Producto A                                    40 	(obj:370)
x#16$Producto C                                   120 	(obj:370)
x#16$Producto D                                   110 	(obj:370)
x#17$Producto A                                   120 	(obj:370)
x#17$Producto B                                    60 	(obj:370)
x#17$Producto E                                   120 	(obj:370)
x#18$Producto A                                   120 	(obj:370)
x#18$Producto B                                   120 	(obj:370)
x#18$Producto D                                    30 	(obj:370)
x#18$Producto E                                    30 	(obj:370)
x#19$Producto A                                   120 	(obj:370)
x#19$Producto B                                   120 	(obj:370)
x#19$Producto E                                    60 	(obj:370)
x#20$Producto A                                   120 	(obj:370)
x#20$Producto B                                   120 	(obj:370)
x#20$Producto D                                    60 	(obj:370)
x#21$Producto A                                   120 	(obj:370)
x#21$Producto B                                   120 	(obj:370)
x#21$Producto E                                    60 	(obj:370)
x#22$Producto A                                    60 	(obj:370)
x#22$Producto B                                    60 	(obj:370)
x#22$Producto C                                    50 	(obj:370)
x#22$Producto D                                    60 	(obj:370)
x#22$Producto E                                    70 	(obj:370)
x#23$Producto A                                    50 	(obj:370)
x#23$Producto B                                    60 	(obj:370)
x#23$Producto E                                    60 	(obj:370)
